(set-logic HORN)
(set-info :source |
    Benchmark: C_VC
    Output by Princess (http://www.philipp.ruemmer.org/princess.shtml)
|)
(set-info :status unknown)
(declare-fun inv_main10 (Int Int Int Int) Bool)
(declare-fun inv_main11 (Int Int Int Int) Bool)
(declare-fun inv_main13 (Int Int Int Int) Bool)
(declare-fun inv_main3 (Int Int Int Int) Bool)
(assert (forall ((var0 Int)) (forall ((var1 Int)) (forall ((var2 Int)) (forall ((var3 Int)) (inv_main3 var1 var0 var3 var2 ) ) ) ) ) )
(assert (forall ((var0 Int)) (forall ((var1 Int)) (forall ((var2 Int)) (forall ((var3 Int)) (or (not (and (inv_main10 var2 var1 var0 var3 ) (<= 0 (+ (+ var0 (* (- 1) var2 ) ) (- 1) ) ) ) ) (inv_main11 var2 var1 var0 var3 ) ) ) ) ) ) )
(assert (forall ((var0 Int)) (forall ((var1 Int)) (forall ((var2 Int)) (forall ((var3 Int)) (or (not (and (inv_main10 var2 var1 var0 var3 ) (not (<= 0 (+ (+ var0 (* (- 1) var2 ) ) (- 1) ) ) ) ) ) (inv_main13 var3 var1 var0 var3 ) ) ) ) ) ) )
(assert (forall ((var0 Int)) (forall ((var1 Int)) (forall ((var2 Int)) (forall ((var3 Int)) (or (not (inv_main11 var2 var1 var0 var3 ) ) (inv_main10 (+ var2 1 ) var1 var0 var3 ) ) ) ) ) ) )
(assert (forall ((var0 Int)) (forall ((var1 Int)) (forall ((var2 Int)) (forall ((var3 Int)) (or (not (and (inv_main13 var2 var1 var0 var3 ) (<= 0 (+ (+ var0 (* (- 1) var2 ) ) (- 1) ) ) ) ) (inv_main13 (+ var2 1 ) var1 var0 var3 ) ) ) ) ) ) )
(assert (forall ((var0 Int)) (forall ((var1 Int)) (forall ((var2 Int)) (forall ((var3 Int)) (or (not (and (inv_main3 var2 var1 var0 var3 ) (and (<= 0 (+ (+ var0 (- 1) ) (- 1) ) ) (<= 0 (+ var3 (- 1) ) ) ) ) ) (inv_main10 var3 1 var0 var3 ) ) ) ) ) ) )
(assert (forall ((var0 Int)) (forall ((var1 Int)) (forall ((var2 Int)) (forall ((var3 Int)) (or (not (and (inv_main13 var2 var1 var0 var3 ) (and (<= 0 (+ (+ var0 (* (- 1) (+ var1 1 ) ) ) (- 1) ) ) (not (<= 0 (+ (+ var0 (* (- 1) var2 ) ) (- 1) ) ) ) ) ) ) (inv_main10 var3 (+ var1 1 ) var0 var3 ) ) ) ) ) ) )
(assert (forall ((var0 Int)) (forall ((var1 Int)) (forall ((var2 Int)) (forall ((var3 Int)) (not (and (inv_main11 var2 var1 var0 var3 ) (not (<= 0 (+ var2 (- 1) ) ) ) ) ) ) ) ) ) )
(check-sat)
